Maximize
  - 4.5364317228646 edge_0_2_0_0 - 0.9417166580298899 edge_0_3_0_0
   - 4.4744349438828 edge_0_6_0_0 - 3.663689961462 edge_0_9_0_0
   - 1.6257110659978 edge_0_13_0_0 - 3.91041 edge_0_16_0_0
   - 2.1593461347635 edge_0_21_0_0 - 5.2457671672842 edge_0_23_0_0
   + 0.6378011179777281 edge_2_3_0_0 - 0.5201580367300781 edge_2_6_0_0
   - 0.4011962002878596 edge_2_7_0_0 - 0.1049900723180126 edge_2_8_0_0
   + 0.180615955549512 edge_2_9_0_0 - 0.6045579737137166 edge_2_10_0_0
   - 1.272455479041416 edge_2_21_0_0 - 0.12890019936195 edge_2_24_0_0
   + 2.784839137862997 edge_3_2_0_0 + 0.511317578421796 edge_3_5_0_0
   + 2.184276936986272 edge_3_6_0_0 + 0.3414979420206497 edge_3_7_0_0
   + 0.2391735704370523 edge_3_8_0_0 + 1.706086093295796 edge_3_9_0_0
   + 0.6816440880571425 edge_3_10_0_0 - 0.4439963577329994 edge_3_11_0_0
   + 0.1671394899817702 edge_3_12_0_0 + 0.7497004034736483 edge_3_13_0_0
   - 0.4845460169053765 edge_3_14_0_0 + 0.6399343881602891 edge_3_15_0_0
   + 1.040715981391069 edge_3_16_0_0 + 0.9231796977549764 edge_3_17_0_0
   + 0.0855460695654104 edge_3_18_0_0 + 1.165064586015458 edge_3_21_0_0
   - 0.8492679936017645 edge_3_23_0_0 + 5.274026903798304 edge_3_24_0_0
   + 0.4189261528365724 edge_5_6_0_0 - 0.3029857363556452 edge_5_7_0_0
   - 0.1473124252145658 edge_5_8_0_0 + 0.1781029669848833 edge_5_9_0_0
   + 0.6074529903507759 edge_5_10_0_0 - 0.3169983471359803 edge_5_11_0_0
   - 0.141004143981067 edge_5_12_0_0 - 0.7343164333781308 edge_5_13_0_0
   - 0.5341459409676815 edge_5_14_0_0 - 0.4248543931888449 edge_5_21_0_0
   - 0.7264963503704195 edge_5_22_0_0 - 0.15802135008038 edge_5_24_0_0
   + 0.702385048985854 edge_6_2_0_0 + 0.0260211985328334 edge_6_3_0_0
   + 2.48657247370103 edge_6_5_0_0 + 0.4888651672628568 edge_6_7_0_0
   + 0.1592821619721382 edge_6_8_0_0 + 0.9419463546564164 edge_6_9_0_0
   + 1.858255713220488 edge_6_10_0_0 + 1.246075464269326 edge_6_11_0_0
   + 0.0100402042412923 edge_6_12_0_0 + 0.00869158156970773 edge_6_13_0_0
   - 0.6358886566315261 edge_6_14_0_0 - 0.24397372430938 edge_6_16_0_0
   + 0.7816741233896624 edge_6_17_0_0 - 0.6732872236099375 edge_6_18_0_0
   + 0.1696726759246064 edge_6_21_0_0 - 0.8466114412361349 edge_6_23_0_0
   + 1.337776495018652 edge_6_24_0_0 - 0.8574187299342316 edge_7_2_0_0
   - 0.9553852218870257 edge_7_3_0_0 - 0.2442598481596816 edge_7_5_0_0
   - 0.2939256871466382 edge_7_6_0_0 + 0.1990691562100504 edge_7_8_0_0
   + 0.4361794010916344 edge_7_9_0_0 + 0.4640969476341455 edge_8_7_0_0
   + 0.3915938849141955 edge_9_2_0_0 - 0.3276659411056214 edge_9_3_0_0
   + 1.358774815601906 edge_9_5_0_0 + 1.823439671780813 edge_9_6_0_0
   + 3.235727452733687 edge_9_7_0_0 + 4.159059018225266 edge_9_8_0_0
   + 1.759510193746182 edge_9_10_0_0 + 0.715171439677231 edge_9_11_0_0
   - 0.0832210328750137 edge_9_12_0_0 + 0.394839600992679 edge_9_13_0_0
   - 0.2684965180603248 edge_9_14_0_0 - 0.2649499712894895 edge_9_15_0_0
   + 0.25286630714442 edge_9_16_0_0 + 0.9974746240310415 edge_9_17_0_0
   - 0.1372347461152647 edge_9_21_0_0 - 1.073339355996035 edge_9_23_0_0
   + 1.744352621364321 edge_9_24_0_0 - 0.0869566562127037 edge_11_2_0_0
   - 0.661021111002859 edge_11_3_0_0 + 0.00260646837420743 edge_11_5_0_0
   - 0.3018169013826075 edge_11_6_0_0 - 0.1159449962441766 edge_11_8_0_0
   + 0.62232656225095 edge_11_10_0_0 + 0.6343678811577081 edge_11_12_0_0
   + 1.657088831164782 edge_11_13_0_0 - 0.3342743402909804 edge_11_14_0_0
   + 0.3826906614048501 edge_11_15_0_0 + 0.6849951982604447 edge_11_16_0_0
   + 0.1231206201505916 edge_11_17_0_0 + 0.1473262176945583 edge_11_21_0_0
   - 0.3081559349361208 edge_11_22_0_0 + 0.6656562974257252 edge_11_23_0_0
   + 0.22228021757088 edge_11_24_0_0 - 0.1417793665719529 edge_12_11_0_0
   + 0.6918247037792108 edge_12_13_0_0 - 0.145751412619575 edge_12_14_0_0
   - 0.9796048654216865 edge_12_16_0_0 - 0.4027735201028292 edge_13_2_0_0
   + 0.5101116341225223 edge_13_3_0_0 + 0.2270484887892654 edge_13_5_0_0
   + 0.963109023279174 edge_13_6_0_0 + 0.3579879162891908 edge_13_7_0_0
   + 1.180686122637698 edge_13_8_0_0 + 1.308283495745999 edge_13_9_0_0
   - 0.2314738986828462 edge_13_10_0_0 + 0.2578072623702621 edge_13_11_0_0
   + 2.636395107284019 edge_13_12_0_0 + 0.2146686400747392 edge_13_14_0_0
   + 0.3318946646557289 edge_13_15_0_0 + 0.36562454862302 edge_13_16_0_0
   + 0.6340852485806785 edge_13_17_0_0 - 0.4472359546496122 edge_13_18_0_0
   - 0.2871895611747453 edge_13_21_0_0 - 0.7972196727473879 edge_13_22_0_0
   + 0.262723250930676 edge_13_23_0_0 + 2.136793865801996 edge_13_24_0_0
   + 0.6067223192518073 edge_14_15_0_0 + 0.055043425471264 edge_14_16_0_0
   - 0.480141837330336 edge_14_22_0_0 - 0.9676184849067579 edge_15_3_0_0
   - 0.9541799796865427 edge_15_5_0_0 - 0.7035857773603277 edge_15_7_0_0
   + 2.701250687076396 edge_15_14_0_0 - 0.2681454014738066 edge_15_17_0_0
   - 0.8205041755991438 edge_15_18_0_0 - 1.20035705564883 edge_15_21_0_0
   - 0.8190750281616375 edge_16_2_0_0 - 0.8676853121415607 edge_16_3_0_0
   - 0.1714318977784111 edge_16_5_0_0 - 1.5398282599921 edge_16_6_0_0
   + 0.05658817361408 edge_16_7_0_0 + 0.15999181793232 edge_16_8_0_0
   - 0.6684741683757599 edge_16_9_0_0 - 0.3257891728578366 edge_16_10_0_0
   - 0.4768503534692574 edge_16_11_0_0 + 0.141514903362963 edge_16_12_0_0
   + 0.06963514560515 edge_16_13_0_0 + 2.738034250360788 edge_16_14_0_0
   + 3.336238430021839 edge_16_15_0_0 + 2.6307685782831 edge_16_17_0_0
   + 0.8407150656193499 edge_16_18_0_0 + 0.9246604677868799 edge_16_21_0_0
   + 0.9835424722904281 edge_16_23_0_0 + 2.3289665298347 edge_16_24_0_0
   - 0.2150289049232169 edge_17_16_0_0 - 0.5246507245398739 edge_17_18_0_0
   + 0.0958254965971775 edge_17_22_0_0 + 0.0192701927161783 edge_17_23_0_0
   - 0.1942813348639736 edge_18_14_0_0 - 0.6009007665597925 edge_18_15_0_0
   + 0.1593208970726176 edge_18_17_0_0 + 1.01411023668119 edge_18_21_0_0
   - 0.0502609754037582 edge_18_23_0_0 + 0.1062807365560966 edge_18_24_0_0
   + 0.0755786538343221 edge_19_18_0_0 - 0.3796289570335205 edge_21_2_0_0
   - 0.3474394033229948 edge_21_3_0_0 - 0.1443535965828996 edge_21_5_0_0
   - 0.0518401009852291 edge_21_6_0_0 + 0.409684228411955 edge_21_7_0_0
   + 0.0519814511878375 edge_21_8_0_0 + 0.6748517515220225 edge_21_9_0_0
   + 1.4047431281165 edge_21_10_0_0 - 0.0843967518513998 edge_21_11_0_0
   - 0.2955443392651158 edge_21_12_0_0 + 0.6383268019703792 edge_21_13_0_0
   + 0.3761563685397364 edge_21_14_0_0 + 1.020409851322005 edge_21_15_0_0
   + 1.919692666752975 edge_21_16_0_0 + 1.319036016987504 edge_21_17_0_0
   + 1.121075076113532 edge_21_18_0_0 + 2.398321826487787 edge_21_19_0_0
   + 1.139589134250998 edge_21_22_0_0 + 2.479586032293216 edge_21_23_0_0
   + 3.4153138865772 edge_21_24_0_0 + 2.072227171671023 edge_22_23_0_0
   - 1.248650723744245 edge_23_2_0_0 - 2.304682389588438 edge_23_3_0_0
   - 0.4045425649901269 edge_23_5_0_0 - 1.764428941342057 edge_23_9_0_0
   - 1.559623667905164 edge_23_11_0_0 - 0.1379710335780872 edge_23_13_0_0
   - 0.8159381600205957 edge_23_14_0_0 - 0.020425283668475 edge_23_15_0_0
   + 0.1042897319748143 edge_23_16_0_0 + 0.2174664055611378 edge_23_17_0_0
   + 0.3492924533886145 edge_23_18_0_0 + 0.7696512732201818 edge_23_19_0_0
   + 0.1907475555573444 edge_23_21_0_0 + 3.239753965262614 edge_23_22_0_0
   + 0.5190597197075999 edge_23_24_0_0
Subject To
 one_parent_1: = 1
 consume_one_flow_unit_1: = 1
 one_parent_2: edge_0_2_0_0 + edge_3_2_0_0 + edge_6_2_0_0 + edge_7_2_0_0
   + edge_9_2_0_0 + edge_11_2_0_0 + edge_13_2_0_0 + edge_16_2_0_0
   + edge_21_2_0_0 + edge_23_2_0_0 = 1
 consume_one_flow_unit_2: flow_0_2_0_0 - flow_2_3_0_0 - flow_2_6_0_0
   - flow_2_7_0_0 - flow_2_8_0_0 - flow_2_9_0_0 - flow_2_10_0_0
   - flow_2_21_0_0 - flow_2_24_0_0 + flow_3_2_0_0 + flow_6_2_0_0
   + flow_7_2_0_0 + flow_9_2_0_0 + flow_11_2_0_0 + flow_13_2_0_0
   + flow_16_2_0_0 + flow_21_2_0_0 + flow_23_2_0_0 = 1
 one_parent_3: edge_0_3_0_0 + edge_2_3_0_0 + edge_6_3_0_0 + edge_7_3_0_0
   + edge_9_3_0_0 + edge_11_3_0_0 + edge_13_3_0_0 + edge_15_3_0_0
   + edge_16_3_0_0 + edge_21_3_0_0 + edge_23_3_0_0 = 1
 consume_one_flow_unit_3: flow_0_3_0_0 + flow_2_3_0_0 - flow_3_2_0_0
   - flow_3_5_0_0 - flow_3_6_0_0 - flow_3_7_0_0 - flow_3_8_0_0
   - flow_3_9_0_0 - flow_3_10_0_0 - flow_3_11_0_0 - flow_3_12_0_0
   - flow_3_13_0_0 - flow_3_14_0_0 - flow_3_15_0_0 - flow_3_16_0_0
   - flow_3_17_0_0 - flow_3_18_0_0 - flow_3_21_0_0 - flow_3_23_0_0
   - flow_3_24_0_0 + flow_6_3_0_0 + flow_7_3_0_0 + flow_9_3_0_0
   + flow_11_3_0_0 + flow_13_3_0_0 + flow_15_3_0_0 + flow_16_3_0_0
   + flow_21_3_0_0 + flow_23_3_0_0 = 1
 one_parent_4: = 1
 consume_one_flow_unit_4: = 1
 one_parent_5: edge_3_5_0_0 + edge_6_5_0_0 + edge_7_5_0_0 + edge_9_5_0_0
   + edge_11_5_0_0 + edge_13_5_0_0 + edge_15_5_0_0 + edge_16_5_0_0
   + edge_21_5_0_0 + edge_23_5_0_0 = 1
 consume_one_flow_unit_5: flow_3_5_0_0 - flow_5_6_0_0 - flow_5_7_0_0
   - flow_5_8_0_0 - flow_5_9_0_0 - flow_5_10_0_0 - flow_5_11_0_0
   - flow_5_12_0_0 - flow_5_13_0_0 - flow_5_14_0_0 - flow_5_21_0_0
   - flow_5_22_0_0 - flow_5_24_0_0 + flow_6_5_0_0 + flow_7_5_0_0
   + flow_9_5_0_0 + flow_11_5_0_0 + flow_13_5_0_0 + flow_15_5_0_0
   + flow_16_5_0_0 + flow_21_5_0_0 + flow_23_5_0_0 = 1
 one_parent_6: edge_0_6_0_0 + edge_2_6_0_0 + edge_3_6_0_0 + edge_5_6_0_0
   + edge_7_6_0_0 + edge_9_6_0_0 + edge_11_6_0_0 + edge_13_6_0_0
   + edge_16_6_0_0 + edge_21_6_0_0 = 1
 consume_one_flow_unit_6: flow_0_6_0_0 + flow_2_6_0_0 + flow_3_6_0_0
   + flow_5_6_0_0 - flow_6_2_0_0 - flow_6_3_0_0 - flow_6_5_0_0
   - flow_6_7_0_0 - flow_6_8_0_0 - flow_6_9_0_0 - flow_6_10_0_0
   - flow_6_11_0_0 - flow_6_12_0_0 - flow_6_13_0_0 - flow_6_14_0_0
   - flow_6_16_0_0 - flow_6_17_0_0 - flow_6_18_0_0 - flow_6_21_0_0
   - flow_6_23_0_0 - flow_6_24_0_0 + flow_7_6_0_0 + flow_9_6_0_0
   + flow_11_6_0_0 + flow_13_6_0_0 + flow_16_6_0_0 + flow_21_6_0_0 = 1
 one_parent_7: edge_2_7_0_0 + edge_3_7_0_0 + edge_5_7_0_0 + edge_6_7_0_0
   + edge_8_7_0_0 + edge_9_7_0_0 + edge_13_7_0_0 + edge_15_7_0_0
   + edge_16_7_0_0 + edge_21_7_0_0 = 1
 consume_one_flow_unit_7: flow_2_7_0_0 + flow_3_7_0_0 + flow_5_7_0_0
   + flow_6_7_0_0 - flow_7_2_0_0 - flow_7_3_0_0 - flow_7_5_0_0
   - flow_7_6_0_0 - flow_7_8_0_0 - flow_7_9_0_0 + flow_8_7_0_0
   + flow_9_7_0_0 + flow_13_7_0_0 + flow_15_7_0_0 + flow_16_7_0_0
   + flow_21_7_0_0 = 1
 one_parent_8: edge_2_8_0_0 + edge_3_8_0_0 + edge_5_8_0_0 + edge_6_8_0_0
   + edge_7_8_0_0 + edge_9_8_0_0 + edge_11_8_0_0 + edge_13_8_0_0
   + edge_16_8_0_0 + edge_21_8_0_0 = 1
 consume_one_flow_unit_8: flow_2_8_0_0 + flow_3_8_0_0 + flow_5_8_0_0
   + flow_6_8_0_0 + flow_7_8_0_0 - flow_8_7_0_0 + flow_9_8_0_0
   + flow_11_8_0_0 + flow_13_8_0_0 + flow_16_8_0_0 + flow_21_8_0_0 = 1
 one_parent_9: edge_0_9_0_0 + edge_2_9_0_0 + edge_3_9_0_0 + edge_5_9_0_0
   + edge_6_9_0_0 + edge_7_9_0_0 + edge_13_9_0_0 + edge_16_9_0_0
   + edge_21_9_0_0 + edge_23_9_0_0 = 1
 consume_one_flow_unit_9: flow_0_9_0_0 + flow_2_9_0_0 + flow_3_9_0_0
   + flow_5_9_0_0 + flow_6_9_0_0 + flow_7_9_0_0 - flow_9_2_0_0
   - flow_9_3_0_0 - flow_9_5_0_0 - flow_9_6_0_0 - flow_9_7_0_0
   - flow_9_8_0_0 - flow_9_10_0_0 - flow_9_11_0_0 - flow_9_12_0_0
   - flow_9_13_0_0 - flow_9_14_0_0 - flow_9_15_0_0 - flow_9_16_0_0
   - flow_9_17_0_0 - flow_9_21_0_0 - flow_9_23_0_0 - flow_9_24_0_0
   + flow_13_9_0_0 + flow_16_9_0_0 + flow_21_9_0_0 + flow_23_9_0_0 = 1
 one_parent_10: edge_2_10_0_0 + edge_3_10_0_0 + edge_5_10_0_0
   + edge_6_10_0_0 + edge_9_10_0_0 + edge_11_10_0_0 + edge_13_10_0_0
   + edge_16_10_0_0 + edge_21_10_0_0 = 1
 consume_one_flow_unit_10: flow_2_10_0_0 + flow_3_10_0_0 + flow_5_10_0_0
   + flow_6_10_0_0 + flow_9_10_0_0 + flow_11_10_0_0 + flow_13_10_0_0
   + flow_16_10_0_0 + flow_21_10_0_0 = 1
 one_parent_11: edge_3_11_0_0 + edge_5_11_0_0 + edge_6_11_0_0
   + edge_9_11_0_0 + edge_12_11_0_0 + edge_13_11_0_0 + edge_16_11_0_0
   + edge_21_11_0_0 + edge_23_11_0_0 = 1
 consume_one_flow_unit_11: flow_3_11_0_0 + flow_5_11_0_0 + flow_6_11_0_0
   + flow_9_11_0_0 - flow_11_2_0_0 - flow_11_3_0_0 - flow_11_5_0_0
   - flow_11_6_0_0 - flow_11_8_0_0 - flow_11_10_0_0 - flow_11_12_0_0
   - flow_11_13_0_0 - flow_11_14_0_0 - flow_11_15_0_0 - flow_11_16_0_0
   - flow_11_17_0_0 - flow_11_21_0_0 - flow_11_22_0_0 - flow_11_23_0_0
   - flow_11_24_0_0 + flow_12_11_0_0 + flow_13_11_0_0 + flow_16_11_0_0
   + flow_21_11_0_0 + flow_23_11_0_0 = 1
 one_parent_12: edge_3_12_0_0 + edge_5_12_0_0 + edge_6_12_0_0
   + edge_9_12_0_0 + edge_11_12_0_0 + edge_13_12_0_0 + edge_16_12_0_0
   + edge_21_12_0_0 = 1
 consume_one_flow_unit_12: flow_3_12_0_0 + flow_5_12_0_0 + flow_6_12_0_0
   + flow_9_12_0_0 + flow_11_12_0_0 - flow_12_11_0_0 - flow_12_13_0_0
   - flow_12_14_0_0 - flow_12_16_0_0 + flow_13_12_0_0 + flow_16_12_0_0
   + flow_21_12_0_0 = 1
 one_parent_13: edge_0_13_0_0 + edge_3_13_0_0 + edge_5_13_0_0
   + edge_6_13_0_0 + edge_9_13_0_0 + edge_11_13_0_0 + edge_12_13_0_0
   + edge_16_13_0_0 + edge_21_13_0_0 + edge_23_13_0_0 = 1
 consume_one_flow_unit_13: flow_0_13_0_0 + flow_3_13_0_0 + flow_5_13_0_0
   + flow_6_13_0_0 + flow_9_13_0_0 + flow_11_13_0_0 + flow_12_13_0_0
   - flow_13_2_0_0 - flow_13_3_0_0 - flow_13_5_0_0 - flow_13_6_0_0
   - flow_13_7_0_0 - flow_13_8_0_0 - flow_13_9_0_0 - flow_13_10_0_0
   - flow_13_11_0_0 - flow_13_12_0_0 - flow_13_14_0_0 - flow_13_15_0_0
   - flow_13_16_0_0 - flow_13_17_0_0 - flow_13_18_0_0 - flow_13_21_0_0
   - flow_13_22_0_0 - flow_13_23_0_0 - flow_13_24_0_0 + flow_16_13_0_0
   + flow_21_13_0_0 + flow_23_13_0_0 = 1
 one_parent_14: edge_3_14_0_0 + edge_5_14_0_0 + edge_6_14_0_0
   + edge_9_14_0_0 + edge_11_14_0_0 + edge_12_14_0_0 + edge_13_14_0_0
   + edge_15_14_0_0 + edge_16_14_0_0 + edge_18_14_0_0 + edge_21_14_0_0
   + edge_23_14_0_0 = 1
 consume_one_flow_unit_14: flow_3_14_0_0 + flow_5_14_0_0 + flow_6_14_0_0
   + flow_9_14_0_0 + flow_11_14_0_0 + flow_12_14_0_0 + flow_13_14_0_0
   - flow_14_15_0_0 - flow_14_16_0_0 - flow_14_22_0_0 + flow_15_14_0_0
   + flow_16_14_0_0 + flow_18_14_0_0 + flow_21_14_0_0 + flow_23_14_0_0 = 1
 one_parent_15: edge_3_15_0_0 + edge_9_15_0_0 + edge_11_15_0_0
   + edge_13_15_0_0 + edge_14_15_0_0 + edge_16_15_0_0 + edge_18_15_0_0
   + edge_21_15_0_0 + edge_23_15_0_0 = 1
 consume_one_flow_unit_15: flow_3_15_0_0 + flow_9_15_0_0 + flow_11_15_0_0
   + flow_13_15_0_0 + flow_14_15_0_0 - flow_15_3_0_0 - flow_15_5_0_0
   - flow_15_7_0_0 - flow_15_14_0_0 - flow_15_17_0_0 - flow_15_18_0_0
   - flow_15_21_0_0 + flow_16_15_0_0 + flow_18_15_0_0 + flow_21_15_0_0
   + flow_23_15_0_0 = 1
 one_parent_16: edge_0_16_0_0 + edge_3_16_0_0 + edge_6_16_0_0
   + edge_9_16_0_0 + edge_11_16_0_0 + edge_12_16_0_0 + edge_13_16_0_0
   + edge_14_16_0_0 + edge_17_16_0_0 + edge_21_16_0_0 + edge_23_16_0_0 = 1
 consume_one_flow_unit_16: flow_0_16_0_0 + flow_3_16_0_0 + flow_6_16_0_0
   + flow_9_16_0_0 + flow_11_16_0_0 + flow_12_16_0_0 + flow_13_16_0_0
   + flow_14_16_0_0 - flow_16_2_0_0 - flow_16_3_0_0 - flow_16_5_0_0
   - flow_16_6_0_0 - flow_16_7_0_0 - flow_16_8_0_0 - flow_16_9_0_0
   - flow_16_10_0_0 - flow_16_11_0_0 - flow_16_12_0_0 - flow_16_13_0_0
   - flow_16_14_0_0 - flow_16_15_0_0 - flow_16_17_0_0 - flow_16_18_0_0
   - flow_16_21_0_0 - flow_16_23_0_0 - flow_16_24_0_0 + flow_17_16_0_0
   + flow_21_16_0_0 + flow_23_16_0_0 = 1
 one_parent_17: edge_3_17_0_0 + edge_6_17_0_0 + edge_9_17_0_0
   + edge_11_17_0_0 + edge_13_17_0_0 + edge_15_17_0_0 + edge_16_17_0_0
   + edge_18_17_0_0 + edge_21_17_0_0 + edge_23_17_0_0 = 1
 consume_one_flow_unit_17: flow_3_17_0_0 + flow_6_17_0_0 + flow_9_17_0_0
   + flow_11_17_0_0 + flow_13_17_0_0 + flow_15_17_0_0 + flow_16_17_0_0
   - flow_17_16_0_0 - flow_17_18_0_0 - flow_17_22_0_0 - flow_17_23_0_0
   + flow_18_17_0_0 + flow_21_17_0_0 + flow_23_17_0_0 = 1
 one_parent_18: edge_3_18_0_0 + edge_6_18_0_0 + edge_13_18_0_0
   + edge_15_18_0_0 + edge_16_18_0_0 + edge_17_18_0_0 + edge_19_18_0_0
   + edge_21_18_0_0 + edge_23_18_0_0 = 1
 consume_one_flow_unit_18: flow_3_18_0_0 + flow_6_18_0_0 + flow_13_18_0_0
   + flow_15_18_0_0 + flow_16_18_0_0 + flow_17_18_0_0 - flow_18_14_0_0
   - flow_18_15_0_0 - flow_18_17_0_0 - flow_18_21_0_0 - flow_18_23_0_0
   - flow_18_24_0_0 + flow_19_18_0_0 + flow_21_18_0_0 + flow_23_18_0_0 = 1
 one_parent_19: edge_21_19_0_0 + edge_23_19_0_0 = 1
 consume_one_flow_unit_19: - flow_19_18_0_0 + flow_21_19_0_0
   + flow_23_19_0_0 = 1
 one_parent_20: = 1
 consume_one_flow_unit_20: = 1
 one_parent_21: edge_0_21_0_0 + edge_2_21_0_0 + edge_3_21_0_0
   + edge_5_21_0_0 + edge_6_21_0_0 + edge_9_21_0_0 + edge_11_21_0_0
   + edge_13_21_0_0 + edge_15_21_0_0 + edge_16_21_0_0 + edge_18_21_0_0
   + edge_23_21_0_0 = 1
 consume_one_flow_unit_21: flow_0_21_0_0 + flow_2_21_0_0 + flow_3_21_0_0
   + flow_5_21_0_0 + flow_6_21_0_0 + flow_9_21_0_0 + flow_11_21_0_0
   + flow_13_21_0_0 + flow_15_21_0_0 + flow_16_21_0_0 + flow_18_21_0_0
   - flow_21_2_0_0 - flow_21_3_0_0 - flow_21_5_0_0 - flow_21_6_0_0
   - flow_21_7_0_0 - flow_21_8_0_0 - flow_21_9_0_0 - flow_21_10_0_0
   - flow_21_11_0_0 - flow_21_12_0_0 - flow_21_13_0_0 - flow_21_14_0_0
   - flow_21_15_0_0 - flow_21_16_0_0 - flow_21_17_0_0 - flow_21_18_0_0
   - flow_21_19_0_0 - flow_21_22_0_0 - flow_21_23_0_0 - flow_21_24_0_0
   + flow_23_21_0_0 = 1
 one_parent_22: edge_5_22_0_0 + edge_11_22_0_0 + edge_13_22_0_0
   + edge_14_22_0_0 + edge_17_22_0_0 + edge_21_22_0_0 + edge_23_22_0_0 = 1
 consume_one_flow_unit_22: flow_5_22_0_0 + flow_11_22_0_0 + flow_13_22_0_0
   + flow_14_22_0_0 + flow_17_22_0_0 + flow_21_22_0_0 - flow_22_23_0_0
   + flow_23_22_0_0 = 1
 one_parent_23: edge_0_23_0_0 + edge_3_23_0_0 + edge_6_23_0_0
   + edge_9_23_0_0 + edge_11_23_0_0 + edge_13_23_0_0 + edge_16_23_0_0
   + edge_17_23_0_0 + edge_18_23_0_0 + edge_21_23_0_0 + edge_22_23_0_0 = 1
 consume_one_flow_unit_23: flow_0_23_0_0 + flow_3_23_0_0 + flow_6_23_0_0
   + flow_9_23_0_0 + flow_11_23_0_0 + flow_13_23_0_0 + flow_16_23_0_0
   + flow_17_23_0_0 + flow_18_23_0_0 + flow_21_23_0_0 + flow_22_23_0_0
   - flow_23_2_0_0 - flow_23_3_0_0 - flow_23_5_0_0 - flow_23_9_0_0
   - flow_23_11_0_0 - flow_23_13_0_0 - flow_23_14_0_0 - flow_23_15_0_0
   - flow_23_16_0_0 - flow_23_17_0_0 - flow_23_18_0_0 - flow_23_19_0_0
   - flow_23_21_0_0 - flow_23_22_0_0 - flow_23_24_0_0 = 1
 one_parent_24: edge_2_24_0_0 + edge_3_24_0_0 + edge_5_24_0_0
   + edge_6_24_0_0 + edge_9_24_0_0 + edge_11_24_0_0 + edge_13_24_0_0
   + edge_16_24_0_0 + edge_18_24_0_0 + edge_21_24_0_0 + edge_23_24_0_0 = 1
 consume_one_flow_unit_24: flow_2_24_0_0 + flow_3_24_0_0 + flow_5_24_0_0
   + flow_6_24_0_0 + flow_9_24_0_0 + flow_11_24_0_0 + flow_13_24_0_0
   + flow_16_24_0_0 + flow_18_24_0_0 + flow_21_24_0_0 + flow_23_24_0_0 = 1
 root_flow: flow_0_2_0_0 + flow_0_3_0_0 + flow_0_6_0_0 + flow_0_9_0_0
   + flow_0_13_0_0 + flow_0_16_0_0 + flow_0_21_0_0 + flow_0_23_0_0 = 24
 inactive_no_flow_0_2_0_0: flow_0_2_0_0 - 1000 edge_0_2_0_0 <= 0
 inactive_no_flow_0_3_0_0: flow_0_3_0_0 - 1000 edge_0_3_0_0 <= 0
 inactive_no_flow_0_6_0_0: flow_0_6_0_0 - 1000 edge_0_6_0_0 <= 0
 inactive_no_flow_0_9_0_0: flow_0_9_0_0 - 1000 edge_0_9_0_0 <= 0
 inactive_no_flow_0_13_0_0: flow_0_13_0_0 - 1000 edge_0_13_0_0 <= 0
 inactive_no_flow_0_16_0_0: flow_0_16_0_0 - 1000 edge_0_16_0_0 <= 0
 inactive_no_flow_0_21_0_0: flow_0_21_0_0 - 1000 edge_0_21_0_0 <= 0
 inactive_no_flow_0_23_0_0: flow_0_23_0_0 - 1000 edge_0_23_0_0 <= 0
 inactive_no_flow_2_3_0_0: flow_2_3_0_0 - 1000 edge_2_3_0_0 <= 0
 inactive_no_flow_2_6_0_0: flow_2_6_0_0 - 1000 edge_2_6_0_0 <= 0
 inactive_no_flow_2_7_0_0: flow_2_7_0_0 - 1000 edge_2_7_0_0 <= 0
 inactive_no_flow_2_8_0_0: flow_2_8_0_0 - 1000 edge_2_8_0_0 <= 0
 inactive_no_flow_2_9_0_0: flow_2_9_0_0 - 1000 edge_2_9_0_0 <= 0
 inactive_no_flow_2_10_0_0: flow_2_10_0_0 - 1000 edge_2_10_0_0 <= 0
 inactive_no_flow_2_21_0_0: flow_2_21_0_0 - 1000 edge_2_21_0_0 <= 0
 inactive_no_flow_2_24_0_0: flow_2_24_0_0 - 1000 edge_2_24_0_0 <= 0
 inactive_no_flow_3_2_0_0: flow_3_2_0_0 - 1000 edge_3_2_0_0 <= 0
 inactive_no_flow_3_5_0_0: flow_3_5_0_0 - 1000 edge_3_5_0_0 <= 0
 inactive_no_flow_3_6_0_0: flow_3_6_0_0 - 1000 edge_3_6_0_0 <= 0
 inactive_no_flow_3_7_0_0: flow_3_7_0_0 - 1000 edge_3_7_0_0 <= 0
 inactive_no_flow_3_8_0_0: flow_3_8_0_0 - 1000 edge_3_8_0_0 <= 0
 inactive_no_flow_3_9_0_0: flow_3_9_0_0 - 1000 edge_3_9_0_0 <= 0
 inactive_no_flow_3_10_0_0: flow_3_10_0_0 - 1000 edge_3_10_0_0 <= 0
 inactive_no_flow_3_11_0_0: flow_3_11_0_0 - 1000 edge_3_11_0_0 <= 0
 inactive_no_flow_3_12_0_0: flow_3_12_0_0 - 1000 edge_3_12_0_0 <= 0
 inactive_no_flow_3_13_0_0: flow_3_13_0_0 - 1000 edge_3_13_0_0 <= 0
 inactive_no_flow_3_14_0_0: flow_3_14_0_0 - 1000 edge_3_14_0_0 <= 0
 inactive_no_flow_3_15_0_0: flow_3_15_0_0 - 1000 edge_3_15_0_0 <= 0
 inactive_no_flow_3_16_0_0: flow_3_16_0_0 - 1000 edge_3_16_0_0 <= 0
 inactive_no_flow_3_17_0_0: flow_3_17_0_0 - 1000 edge_3_17_0_0 <= 0
 inactive_no_flow_3_18_0_0: flow_3_18_0_0 - 1000 edge_3_18_0_0 <= 0
 inactive_no_flow_3_21_0_0: flow_3_21_0_0 - 1000 edge_3_21_0_0 <= 0
 inactive_no_flow_3_23_0_0: flow_3_23_0_0 - 1000 edge_3_23_0_0 <= 0
 inactive_no_flow_3_24_0_0: flow_3_24_0_0 - 1000 edge_3_24_0_0 <= 0
 inactive_no_flow_5_6_0_0: flow_5_6_0_0 - 1000 edge_5_6_0_0 <= 0
 inactive_no_flow_5_7_0_0: flow_5_7_0_0 - 1000 edge_5_7_0_0 <= 0
 inactive_no_flow_5_8_0_0: flow_5_8_0_0 - 1000 edge_5_8_0_0 <= 0
 inactive_no_flow_5_9_0_0: flow_5_9_0_0 - 1000 edge_5_9_0_0 <= 0
 inactive_no_flow_5_10_0_0: flow_5_10_0_0 - 1000 edge_5_10_0_0 <= 0
 inactive_no_flow_5_11_0_0: flow_5_11_0_0 - 1000 edge_5_11_0_0 <= 0
 inactive_no_flow_5_12_0_0: flow_5_12_0_0 - 1000 edge_5_12_0_0 <= 0
 inactive_no_flow_5_13_0_0: flow_5_13_0_0 - 1000 edge_5_13_0_0 <= 0
 inactive_no_flow_5_14_0_0: flow_5_14_0_0 - 1000 edge_5_14_0_0 <= 0
 inactive_no_flow_5_21_0_0: flow_5_21_0_0 - 1000 edge_5_21_0_0 <= 0
 inactive_no_flow_5_22_0_0: flow_5_22_0_0 - 1000 edge_5_22_0_0 <= 0
 inactive_no_flow_5_24_0_0: flow_5_24_0_0 - 1000 edge_5_24_0_0 <= 0
 inactive_no_flow_6_2_0_0: flow_6_2_0_0 - 1000 edge_6_2_0_0 <= 0
 inactive_no_flow_6_3_0_0: flow_6_3_0_0 - 1000 edge_6_3_0_0 <= 0
 inactive_no_flow_6_5_0_0: flow_6_5_0_0 - 1000 edge_6_5_0_0 <= 0
 inactive_no_flow_6_7_0_0: flow_6_7_0_0 - 1000 edge_6_7_0_0 <= 0
 inactive_no_flow_6_8_0_0: flow_6_8_0_0 - 1000 edge_6_8_0_0 <= 0
 inactive_no_flow_6_9_0_0: flow_6_9_0_0 - 1000 edge_6_9_0_0 <= 0
 inactive_no_flow_6_10_0_0: flow_6_10_0_0 - 1000 edge_6_10_0_0 <= 0
 inactive_no_flow_6_11_0_0: flow_6_11_0_0 - 1000 edge_6_11_0_0 <= 0
 inactive_no_flow_6_12_0_0: flow_6_12_0_0 - 1000 edge_6_12_0_0 <= 0
 inactive_no_flow_6_13_0_0: flow_6_13_0_0 - 1000 edge_6_13_0_0 <= 0
 inactive_no_flow_6_14_0_0: flow_6_14_0_0 - 1000 edge_6_14_0_0 <= 0
 inactive_no_flow_6_16_0_0: flow_6_16_0_0 - 1000 edge_6_16_0_0 <= 0
 inactive_no_flow_6_17_0_0: flow_6_17_0_0 - 1000 edge_6_17_0_0 <= 0
 inactive_no_flow_6_18_0_0: flow_6_18_0_0 - 1000 edge_6_18_0_0 <= 0
 inactive_no_flow_6_21_0_0: flow_6_21_0_0 - 1000 edge_6_21_0_0 <= 0
 inactive_no_flow_6_23_0_0: flow_6_23_0_0 - 1000 edge_6_23_0_0 <= 0
 inactive_no_flow_6_24_0_0: flow_6_24_0_0 - 1000 edge_6_24_0_0 <= 0
 inactive_no_flow_7_2_0_0: flow_7_2_0_0 - 1000 edge_7_2_0_0 <= 0
 inactive_no_flow_7_3_0_0: flow_7_3_0_0 - 1000 edge_7_3_0_0 <= 0
 inactive_no_flow_7_5_0_0: flow_7_5_0_0 - 1000 edge_7_5_0_0 <= 0
 inactive_no_flow_7_6_0_0: flow_7_6_0_0 - 1000 edge_7_6_0_0 <= 0
 inactive_no_flow_7_8_0_0: flow_7_8_0_0 - 1000 edge_7_8_0_0 <= 0
 inactive_no_flow_7_9_0_0: flow_7_9_0_0 - 1000 edge_7_9_0_0 <= 0
 inactive_no_flow_8_7_0_0: flow_8_7_0_0 - 1000 edge_8_7_0_0 <= 0
 inactive_no_flow_9_2_0_0: flow_9_2_0_0 - 1000 edge_9_2_0_0 <= 0
 inactive_no_flow_9_3_0_0: flow_9_3_0_0 - 1000 edge_9_3_0_0 <= 0
 inactive_no_flow_9_5_0_0: flow_9_5_0_0 - 1000 edge_9_5_0_0 <= 0
 inactive_no_flow_9_6_0_0: flow_9_6_0_0 - 1000 edge_9_6_0_0 <= 0
 inactive_no_flow_9_7_0_0: flow_9_7_0_0 - 1000 edge_9_7_0_0 <= 0
 inactive_no_flow_9_8_0_0: flow_9_8_0_0 - 1000 edge_9_8_0_0 <= 0
 inactive_no_flow_9_10_0_0: flow_9_10_0_0 - 1000 edge_9_10_0_0 <= 0
 inactive_no_flow_9_11_0_0: flow_9_11_0_0 - 1000 edge_9_11_0_0 <= 0
 inactive_no_flow_9_12_0_0: flow_9_12_0_0 - 1000 edge_9_12_0_0 <= 0
 inactive_no_flow_9_13_0_0: flow_9_13_0_0 - 1000 edge_9_13_0_0 <= 0
 inactive_no_flow_9_14_0_0: flow_9_14_0_0 - 1000 edge_9_14_0_0 <= 0
 inactive_no_flow_9_15_0_0: flow_9_15_0_0 - 1000 edge_9_15_0_0 <= 0
 inactive_no_flow_9_16_0_0: flow_9_16_0_0 - 1000 edge_9_16_0_0 <= 0
 inactive_no_flow_9_17_0_0: flow_9_17_0_0 - 1000 edge_9_17_0_0 <= 0
 inactive_no_flow_9_21_0_0: flow_9_21_0_0 - 1000 edge_9_21_0_0 <= 0
 inactive_no_flow_9_23_0_0: flow_9_23_0_0 - 1000 edge_9_23_0_0 <= 0
 inactive_no_flow_9_24_0_0: flow_9_24_0_0 - 1000 edge_9_24_0_0 <= 0
 inactive_no_flow_11_2_0_0: flow_11_2_0_0 - 1000 edge_11_2_0_0 <= 0
 inactive_no_flow_11_3_0_0: flow_11_3_0_0 - 1000 edge_11_3_0_0 <= 0
 inactive_no_flow_11_5_0_0: flow_11_5_0_0 - 1000 edge_11_5_0_0 <= 0
 inactive_no_flow_11_6_0_0: flow_11_6_0_0 - 1000 edge_11_6_0_0 <= 0
 inactive_no_flow_11_8_0_0: flow_11_8_0_0 - 1000 edge_11_8_0_0 <= 0
 inactive_no_flow_11_10_0_0: flow_11_10_0_0 - 1000 edge_11_10_0_0 <= 0
 inactive_no_flow_11_12_0_0: flow_11_12_0_0 - 1000 edge_11_12_0_0 <= 0
 inactive_no_flow_11_13_0_0: flow_11_13_0_0 - 1000 edge_11_13_0_0 <= 0
 inactive_no_flow_11_14_0_0: flow_11_14_0_0 - 1000 edge_11_14_0_0 <= 0
 inactive_no_flow_11_15_0_0: flow_11_15_0_0 - 1000 edge_11_15_0_0 <= 0
 inactive_no_flow_11_16_0_0: flow_11_16_0_0 - 1000 edge_11_16_0_0 <= 0
 inactive_no_flow_11_17_0_0: flow_11_17_0_0 - 1000 edge_11_17_0_0 <= 0
 inactive_no_flow_11_21_0_0: flow_11_21_0_0 - 1000 edge_11_21_0_0 <= 0
 inactive_no_flow_11_22_0_0: flow_11_22_0_0 - 1000 edge_11_22_0_0 <= 0
 inactive_no_flow_11_23_0_0: flow_11_23_0_0 - 1000 edge_11_23_0_0 <= 0
 inactive_no_flow_11_24_0_0: flow_11_24_0_0 - 1000 edge_11_24_0_0 <= 0
 inactive_no_flow_12_11_0_0: flow_12_11_0_0 - 1000 edge_12_11_0_0 <= 0
 inactive_no_flow_12_13_0_0: flow_12_13_0_0 - 1000 edge_12_13_0_0 <= 0
 inactive_no_flow_12_14_0_0: flow_12_14_0_0 - 1000 edge_12_14_0_0 <= 0
 inactive_no_flow_12_16_0_0: flow_12_16_0_0 - 1000 edge_12_16_0_0 <= 0
 inactive_no_flow_13_2_0_0: flow_13_2_0_0 - 1000 edge_13_2_0_0 <= 0
 inactive_no_flow_13_3_0_0: flow_13_3_0_0 - 1000 edge_13_3_0_0 <= 0
 inactive_no_flow_13_5_0_0: flow_13_5_0_0 - 1000 edge_13_5_0_0 <= 0
 inactive_no_flow_13_6_0_0: flow_13_6_0_0 - 1000 edge_13_6_0_0 <= 0
 inactive_no_flow_13_7_0_0: flow_13_7_0_0 - 1000 edge_13_7_0_0 <= 0
 inactive_no_flow_13_8_0_0: flow_13_8_0_0 - 1000 edge_13_8_0_0 <= 0
 inactive_no_flow_13_9_0_0: flow_13_9_0_0 - 1000 edge_13_9_0_0 <= 0
 inactive_no_flow_13_10_0_0: flow_13_10_0_0 - 1000 edge_13_10_0_0 <= 0
 inactive_no_flow_13_11_0_0: flow_13_11_0_0 - 1000 edge_13_11_0_0 <= 0
 inactive_no_flow_13_12_0_0: flow_13_12_0_0 - 1000 edge_13_12_0_0 <= 0
 inactive_no_flow_13_14_0_0: flow_13_14_0_0 - 1000 edge_13_14_0_0 <= 0
 inactive_no_flow_13_15_0_0: flow_13_15_0_0 - 1000 edge_13_15_0_0 <= 0
 inactive_no_flow_13_16_0_0: flow_13_16_0_0 - 1000 edge_13_16_0_0 <= 0
 inactive_no_flow_13_17_0_0: flow_13_17_0_0 - 1000 edge_13_17_0_0 <= 0
 inactive_no_flow_13_18_0_0: flow_13_18_0_0 - 1000 edge_13_18_0_0 <= 0
 inactive_no_flow_13_21_0_0: flow_13_21_0_0 - 1000 edge_13_21_0_0 <= 0
 inactive_no_flow_13_22_0_0: flow_13_22_0_0 - 1000 edge_13_22_0_0 <= 0
 inactive_no_flow_13_23_0_0: flow_13_23_0_0 - 1000 edge_13_23_0_0 <= 0
 inactive_no_flow_13_24_0_0: flow_13_24_0_0 - 1000 edge_13_24_0_0 <= 0
 inactive_no_flow_14_15_0_0: flow_14_15_0_0 - 1000 edge_14_15_0_0 <= 0
 inactive_no_flow_14_16_0_0: flow_14_16_0_0 - 1000 edge_14_16_0_0 <= 0
 inactive_no_flow_14_22_0_0: flow_14_22_0_0 - 1000 edge_14_22_0_0 <= 0
 inactive_no_flow_15_3_0_0: flow_15_3_0_0 - 1000 edge_15_3_0_0 <= 0
 inactive_no_flow_15_5_0_0: flow_15_5_0_0 - 1000 edge_15_5_0_0 <= 0
 inactive_no_flow_15_7_0_0: flow_15_7_0_0 - 1000 edge_15_7_0_0 <= 0
 inactive_no_flow_15_14_0_0: flow_15_14_0_0 - 1000 edge_15_14_0_0 <= 0
 inactive_no_flow_15_17_0_0: flow_15_17_0_0 - 1000 edge_15_17_0_0 <= 0
 inactive_no_flow_15_18_0_0: flow_15_18_0_0 - 1000 edge_15_18_0_0 <= 0
 inactive_no_flow_15_21_0_0: flow_15_21_0_0 - 1000 edge_15_21_0_0 <= 0
 inactive_no_flow_16_2_0_0: flow_16_2_0_0 - 1000 edge_16_2_0_0 <= 0
 inactive_no_flow_16_3_0_0: flow_16_3_0_0 - 1000 edge_16_3_0_0 <= 0
 inactive_no_flow_16_5_0_0: flow_16_5_0_0 - 1000 edge_16_5_0_0 <= 0
 inactive_no_flow_16_6_0_0: flow_16_6_0_0 - 1000 edge_16_6_0_0 <= 0
 inactive_no_flow_16_7_0_0: flow_16_7_0_0 - 1000 edge_16_7_0_0 <= 0
 inactive_no_flow_16_8_0_0: flow_16_8_0_0 - 1000 edge_16_8_0_0 <= 0
 inactive_no_flow_16_9_0_0: flow_16_9_0_0 - 1000 edge_16_9_0_0 <= 0
 inactive_no_flow_16_10_0_0: flow_16_10_0_0 - 1000 edge_16_10_0_0 <= 0
 inactive_no_flow_16_11_0_0: flow_16_11_0_0 - 1000 edge_16_11_0_0 <= 0
 inactive_no_flow_16_12_0_0: flow_16_12_0_0 - 1000 edge_16_12_0_0 <= 0
 inactive_no_flow_16_13_0_0: flow_16_13_0_0 - 1000 edge_16_13_0_0 <= 0
 inactive_no_flow_16_14_0_0: flow_16_14_0_0 - 1000 edge_16_14_0_0 <= 0
 inactive_no_flow_16_15_0_0: flow_16_15_0_0 - 1000 edge_16_15_0_0 <= 0
 inactive_no_flow_16_17_0_0: flow_16_17_0_0 - 1000 edge_16_17_0_0 <= 0
 inactive_no_flow_16_18_0_0: flow_16_18_0_0 - 1000 edge_16_18_0_0 <= 0
 inactive_no_flow_16_21_0_0: flow_16_21_0_0 - 1000 edge_16_21_0_0 <= 0
 inactive_no_flow_16_23_0_0: flow_16_23_0_0 - 1000 edge_16_23_0_0 <= 0
 inactive_no_flow_16_24_0_0: flow_16_24_0_0 - 1000 edge_16_24_0_0 <= 0
 inactive_no_flow_17_16_0_0: flow_17_16_0_0 - 1000 edge_17_16_0_0 <= 0
 inactive_no_flow_17_18_0_0: flow_17_18_0_0 - 1000 edge_17_18_0_0 <= 0
 inactive_no_flow_17_22_0_0: flow_17_22_0_0 - 1000 edge_17_22_0_0 <= 0
 inactive_no_flow_17_23_0_0: flow_17_23_0_0 - 1000 edge_17_23_0_0 <= 0
 inactive_no_flow_18_14_0_0: flow_18_14_0_0 - 1000 edge_18_14_0_0 <= 0
 inactive_no_flow_18_15_0_0: flow_18_15_0_0 - 1000 edge_18_15_0_0 <= 0
 inactive_no_flow_18_17_0_0: flow_18_17_0_0 - 1000 edge_18_17_0_0 <= 0
 inactive_no_flow_18_21_0_0: flow_18_21_0_0 - 1000 edge_18_21_0_0 <= 0
 inactive_no_flow_18_23_0_0: flow_18_23_0_0 - 1000 edge_18_23_0_0 <= 0
 inactive_no_flow_18_24_0_0: flow_18_24_0_0 - 1000 edge_18_24_0_0 <= 0
 inactive_no_flow_19_18_0_0: flow_19_18_0_0 - 1000 edge_19_18_0_0 <= 0
 inactive_no_flow_21_2_0_0: flow_21_2_0_0 - 1000 edge_21_2_0_0 <= 0
 inactive_no_flow_21_3_0_0: flow_21_3_0_0 - 1000 edge_21_3_0_0 <= 0
 inactive_no_flow_21_5_0_0: flow_21_5_0_0 - 1000 edge_21_5_0_0 <= 0
 inactive_no_flow_21_6_0_0: flow_21_6_0_0 - 1000 edge_21_6_0_0 <= 0
 inactive_no_flow_21_7_0_0: flow_21_7_0_0 - 1000 edge_21_7_0_0 <= 0
 inactive_no_flow_21_8_0_0: flow_21_8_0_0 - 1000 edge_21_8_0_0 <= 0
 inactive_no_flow_21_9_0_0: flow_21_9_0_0 - 1000 edge_21_9_0_0 <= 0
 inactive_no_flow_21_10_0_0: flow_21_10_0_0 - 1000 edge_21_10_0_0 <= 0
 inactive_no_flow_21_11_0_0: flow_21_11_0_0 - 1000 edge_21_11_0_0 <= 0
 inactive_no_flow_21_12_0_0: flow_21_12_0_0 - 1000 edge_21_12_0_0 <= 0
 inactive_no_flow_21_13_0_0: flow_21_13_0_0 - 1000 edge_21_13_0_0 <= 0
 inactive_no_flow_21_14_0_0: flow_21_14_0_0 - 1000 edge_21_14_0_0 <= 0
 inactive_no_flow_21_15_0_0: flow_21_15_0_0 - 1000 edge_21_15_0_0 <= 0
 inactive_no_flow_21_16_0_0: flow_21_16_0_0 - 1000 edge_21_16_0_0 <= 0
 inactive_no_flow_21_17_0_0: flow_21_17_0_0 - 1000 edge_21_17_0_0 <= 0
 inactive_no_flow_21_18_0_0: flow_21_18_0_0 - 1000 edge_21_18_0_0 <= 0
 inactive_no_flow_21_19_0_0: flow_21_19_0_0 - 1000 edge_21_19_0_0 <= 0
 inactive_no_flow_21_22_0_0: flow_21_22_0_0 - 1000 edge_21_22_0_0 <= 0
 inactive_no_flow_21_23_0_0: flow_21_23_0_0 - 1000 edge_21_23_0_0 <= 0
 inactive_no_flow_21_24_0_0: flow_21_24_0_0 - 1000 edge_21_24_0_0 <= 0
 inactive_no_flow_22_23_0_0: flow_22_23_0_0 - 1000 edge_22_23_0_0 <= 0
 inactive_no_flow_23_2_0_0: flow_23_2_0_0 - 1000 edge_23_2_0_0 <= 0
 inactive_no_flow_23_3_0_0: flow_23_3_0_0 - 1000 edge_23_3_0_0 <= 0
 inactive_no_flow_23_5_0_0: flow_23_5_0_0 - 1000 edge_23_5_0_0 <= 0
 inactive_no_flow_23_9_0_0: flow_23_9_0_0 - 1000 edge_23_9_0_0 <= 0
 inactive_no_flow_23_11_0_0: flow_23_11_0_0 - 1000 edge_23_11_0_0 <= 0
 inactive_no_flow_23_13_0_0: flow_23_13_0_0 - 1000 edge_23_13_0_0 <= 0
 inactive_no_flow_23_14_0_0: flow_23_14_0_0 - 1000 edge_23_14_0_0 <= 0
 inactive_no_flow_23_15_0_0: flow_23_15_0_0 - 1000 edge_23_15_0_0 <= 0
 inactive_no_flow_23_16_0_0: flow_23_16_0_0 - 1000 edge_23_16_0_0 <= 0
 inactive_no_flow_23_17_0_0: flow_23_17_0_0 - 1000 edge_23_17_0_0 <= 0
 inactive_no_flow_23_18_0_0: flow_23_18_0_0 - 1000 edge_23_18_0_0 <= 0
 inactive_no_flow_23_19_0_0: flow_23_19_0_0 - 1000 edge_23_19_0_0 <= 0
 inactive_no_flow_23_21_0_0: flow_23_21_0_0 - 1000 edge_23_21_0_0 <= 0
 inactive_no_flow_23_22_0_0: flow_23_22_0_0 - 1000 edge_23_22_0_0 <= 0
 inactive_no_flow_23_24_0_0: flow_23_24_0_0 - 1000 edge_23_24_0_0 <= 0
Bounds
Binaries
 edge_0_2_0_0 edge_0_3_0_0 edge_0_6_0_0 edge_0_9_0_0 edge_0_13_0_0
 edge_0_16_0_0 edge_0_21_0_0 edge_0_23_0_0 edge_2_3_0_0 edge_2_6_0_0
 edge_2_7_0_0 edge_2_8_0_0 edge_2_9_0_0 edge_2_10_0_0 edge_2_21_0_0
 edge_2_24_0_0 edge_3_2_0_0 edge_3_5_0_0 edge_3_6_0_0 edge_3_7_0_0
 edge_3_8_0_0 edge_3_9_0_0 edge_3_10_0_0 edge_3_11_0_0 edge_3_12_0_0
 edge_3_13_0_0 edge_3_14_0_0 edge_3_15_0_0 edge_3_16_0_0 edge_3_17_0_0
 edge_3_18_0_0 edge_3_21_0_0 edge_3_23_0_0 edge_3_24_0_0 edge_5_6_0_0
 edge_5_7_0_0 edge_5_8_0_0 edge_5_9_0_0 edge_5_10_0_0 edge_5_11_0_0
 edge_5_12_0_0 edge_5_13_0_0 edge_5_14_0_0 edge_5_21_0_0 edge_5_22_0_0
 edge_5_24_0_0 edge_6_2_0_0 edge_6_3_0_0 edge_6_5_0_0 edge_6_7_0_0
 edge_6_8_0_0 edge_6_9_0_0 edge_6_10_0_0 edge_6_11_0_0 edge_6_12_0_0
 edge_6_13_0_0 edge_6_14_0_0 edge_6_16_0_0 edge_6_17_0_0 edge_6_18_0_0
 edge_6_21_0_0 edge_6_23_0_0 edge_6_24_0_0 edge_7_2_0_0 edge_7_3_0_0
 edge_7_5_0_0 edge_7_6_0_0 edge_7_8_0_0 edge_7_9_0_0 edge_8_7_0_0
 edge_9_2_0_0 edge_9_3_0_0 edge_9_5_0_0 edge_9_6_0_0 edge_9_7_0_0
 edge_9_8_0_0 edge_9_10_0_0 edge_9_11_0_0 edge_9_12_0_0 edge_9_13_0_0
 edge_9_14_0_0 edge_9_15_0_0 edge_9_16_0_0 edge_9_17_0_0 edge_9_21_0_0
 edge_9_23_0_0 edge_9_24_0_0 edge_11_2_0_0 edge_11_3_0_0 edge_11_5_0_0
 edge_11_6_0_0 edge_11_8_0_0 edge_11_10_0_0 edge_11_12_0_0 edge_11_13_0_0
 edge_11_14_0_0 edge_11_15_0_0 edge_11_16_0_0 edge_11_17_0_0 edge_11_21_0_0
 edge_11_22_0_0 edge_11_23_0_0 edge_11_24_0_0 edge_12_11_0_0 edge_12_13_0_0
 edge_12_14_0_0 edge_12_16_0_0 edge_13_2_0_0 edge_13_3_0_0 edge_13_5_0_0
 edge_13_6_0_0 edge_13_7_0_0 edge_13_8_0_0 edge_13_9_0_0 edge_13_10_0_0
 edge_13_11_0_0 edge_13_12_0_0 edge_13_14_0_0 edge_13_15_0_0 edge_13_16_0_0
 edge_13_17_0_0 edge_13_18_0_0 edge_13_21_0_0 edge_13_22_0_0 edge_13_23_0_0
 edge_13_24_0_0 edge_14_15_0_0 edge_14_16_0_0 edge_14_22_0_0 edge_15_3_0_0
 edge_15_5_0_0 edge_15_7_0_0 edge_15_14_0_0 edge_15_17_0_0 edge_15_18_0_0
 edge_15_21_0_0 edge_16_2_0_0 edge_16_3_0_0 edge_16_5_0_0 edge_16_6_0_0
 edge_16_7_0_0 edge_16_8_0_0 edge_16_9_0_0 edge_16_10_0_0 edge_16_11_0_0
 edge_16_12_0_0 edge_16_13_0_0 edge_16_14_0_0 edge_16_15_0_0 edge_16_17_0_0
 edge_16_18_0_0 edge_16_21_0_0 edge_16_23_0_0 edge_16_24_0_0 edge_17_16_0_0
 edge_17_18_0_0 edge_17_22_0_0 edge_17_23_0_0 edge_18_14_0_0 edge_18_15_0_0
 edge_18_17_0_0 edge_18_21_0_0 edge_18_23_0_0 edge_18_24_0_0 edge_19_18_0_0
 edge_21_2_0_0 edge_21_3_0_0 edge_21_5_0_0 edge_21_6_0_0 edge_21_7_0_0
 edge_21_8_0_0 edge_21_9_0_0 edge_21_10_0_0 edge_21_11_0_0 edge_21_12_0_0
 edge_21_13_0_0 edge_21_14_0_0 edge_21_15_0_0 edge_21_16_0_0 edge_21_17_0_0
 edge_21_18_0_0 edge_21_19_0_0 edge_21_22_0_0 edge_21_23_0_0 edge_21_24_0_0
 edge_22_23_0_0 edge_23_2_0_0 edge_23_3_0_0 edge_23_5_0_0 edge_23_9_0_0
 edge_23_11_0_0 edge_23_13_0_0 edge_23_14_0_0 edge_23_15_0_0 edge_23_16_0_0
 edge_23_17_0_0 edge_23_18_0_0 edge_23_19_0_0 edge_23_21_0_0 edge_23_22_0_0
 edge_23_24_0_0
End
